50
1 0 6
2 0 6
2 1 2
3 0 7
3 1 4
3 2 6
4 0 6
4 1 7
4 2 1
4 3 6
5 0 1
5 1 2
5 2 10
5 3 4
5 4 10
6 0 6
6 1 2
6 2 7
6 3 5
6 4 5
6 5 7
7 0 1
7 1 10
7 2 9
7 3 7
7 4 7
7 5 6
7 6 10
8 0 9
8 1 2
8 2 4
8 3 4
8 4 3
8 5 3
8 6 4
8 7 3
9 0 7
9 1 10
9 2 7
9 3 3
9 4 4
9 5 9
9 6 10
9 7 6
9 8 7
10 0 6
10 1 1
10 2 6
10 3 6
10 4 3
10 5 7
10 6 2
10 7 6
10 8 3
10 9 6
11 0 9
11 1 2
11 2 1
11 3 6
11 4 5
11 5 5
11 6 2
11 7 2
11 8 7
11 9 1
11 10 3
12 0 10
12 1 6
12 2 3
12 3 6
12 4 3
12 5 2
12 6 9
12 7 7
12 8 9
12 9 8
12 10 5
12 11 5
13 0 2
13 1 9
13 2 6
13 3 3
13 4 4
13 5 10
13 6 5
13 7 8
13 8 1
13 9 10
13 10 1
13 11 5
13 12 10
14 0 2
14 1 7
14 2 3
14 3 4
14 4 8
14 5 4
14 6 6
14 7 8
14 8 2
14 9 6
14 10 7
14 11 3
14 12 5
14 13 8
15 0 6
15 1 5
15 2 7
15 3 10
15 4 6
15 5 1
15 6 2
15 7 9
15 8 5
15 9 6
15 10 10
15 11 3
15 12 7
15 13 9
15 14 8
16 0 9
16 1 6
16 2 2
16 3 2
16 4 9
16 5 5
16 6 8
16 7 2
16 8 4
16 9 1
16 10 1
16 11 10
16 12 3
16 13 1
16 14 3
16 15 5
17 0 7
17 1 10
17 2 1
17 3 1
17 4 7
17 5 4
17 6 5
17 7 8
17 8 3
17 9 4
17 10 3
17 11 2
17 12 2
17 13 2
17 14 5
17 15 2
17 16 4
18 0 9
18 1 3
18 2 1
18 3 7
18 4 5
18 5 6
18 6 3
18 7 1
18 8 4
18 9 7
18 10 3
18 11 5
18 12 4
18 13 4
18 14 2
18 15 2
18 16 10
18 17 7
19 0 2
19 1 10
19 2 7
19 3 7
19 4 5
19 5 7
19 6 2
19 7 8
19 8 3
19 9 3
19 10 6
19 11 1
19 12 6
19 13 6
19 14 8
19 15 2
19 16 1
19 17 4
19 18 5
20 0 6
20 1 5
20 2 3
20 3 1
20 4 6
20 5 5
20 6 6
20 7 7
20 8 2
20 9 3
20 10 10
20 11 6
20 12 4
20 13 10
20 14 3
20 15 1
20 16 6
20 17 6
20 18 5
20 19 10
21 0 3
21 1 9
21 2 7
21 3 4
21 4 6
21 5 2
21 6 10
21 7 10
21 8 3
21 9 8
21 10 4
21 11 2
21 12 8
21 13 3
21 14 10
21 15 9
21 16 1
21 17 4
21 18 8
21 19 6
21 20 7
22 0 2
22 1 7
22 2 1
22 3 9
22 4 2
22 5 2
22 6 5
22 7 5
22 8 8
22 9 5
22 10 3
22 11 10
22 12 8
22 13 2
22 14 7
22 15 2
22 16 6
22 17 10
22 18 1
22 19 8
22 20 1
22 21 5
23 0 8
23 1 3
23 2 7
23 3 2
23 4 5
23 5 6
23 6 4
23 7 8
23 8 10
23 9 1
23 10 6
23 11 9
23 12 5
23 13 8
23 14 7
23 15 1
23 16 2
23 17 3
23 18 8
23 19 6
23 20 9
23 21 6
23 22 8
24 0 5
24 1 8
24 2 1
24 3 3
24 4 2
24 5 10
24 6 8
24 7 1
24 8 2
24 9 7
24 10 2
24 11 5
24 12 9
24 13 8
24 14 2
24 15 5
24 16 9
24 17 3
24 18 8
24 19 9
24 20 6
24 21 1
24 22 10
24 23 6
25 0 1
25 1 7
25 2 9
25 3 8
25 4 6
25 5 2
25 6 10
25 7 5
25 8 9
25 9 4
25 10 4
25 11 5
25 12 1
25 13 8
25 14 2
25 15 9
25 16 4
25 17 4
25 18 10
25 19 3
25 20 7
25 21 9
25 22 6
25 23 7
25 24 5
26 0 7
26 1 5
26 2 7
26 3 9
26 4 5
26 5 4
26 6 8
26 7 3
26 8 8
26 9 8
26 10 9
26 11 8
26 12 9
26 13 3
26 14 4
26 15 3
26 16 10
26 17 9
26 18 5
26 19 9
26 20 1
26 21 8
26 22 8
26 23 7
26 24 9
26 25 6
27 0 10
27 1 10
27 2 4
27 3 6
27 4 5
27 5 4
27 6 10
27 7 5
27 8 8
27 9 1
27 10 5
27 11 9
27 12 6
27 13 9
27 14 1
27 15 1
27 16 1
27 17 9
27 18 8
27 19 5
27 20 7
27 21 9
27 22 7
27 23 4
27 24 10
27 25 10
27 26 4
28 0 9
28 1 1
28 2 6
28 3 8
28 4 1
28 5 10
28 6 9
28 7 8
28 8 2
28 9 7
28 10 5
28 11 4
28 12 6
28 13 3
28 14 2
28 15 1
28 16 1
28 17 9
28 18 2
28 19 6
28 20 3
28 21 3
28 22 8
28 23 6
28 24 7
28 25 1
28 26 6
28 27 10
29 0 7
29 1 4
29 2 9
29 3 5
29 4 3
29 5 6
29 6 2
29 7 9
29 8 10
29 9 10
29 10 9
29 11 9
29 12 8
29 13 7
29 14 10
29 15 6
29 16 7
29 17 2
29 18 3
29 19 2
29 20 5
29 21 6
29 22 4
29 23 7
29 24 7
29 25 3
29 26 8
29 27 4
29 28 6
30 0 10
30 1 1
30 2 6
30 3 9
30 4 7
30 5 2
30 6 1
30 7 4
30 8 2
30 9 5
30 10 6
30 11 7
30 12 9
30 13 9
30 14 1
30 15 6
30 16 4
30 17 7
30 18 6
30 19 2
30 20 5
30 21 1
30 22 6
30 23 10
30 24 9
30 25 5
30 26 10
30 27 5
30 28 4
30 29 1
31 0 8
31 1 9
31 2 1
31 3 7
31 4 8
31 5 8
31 6 3
31 7 5
31 8 8
31 9 8
31 10 4
31 11 6
31 12 4
31 13 10
31 14 9
31 15 4
31 16 10
31 17 9
31 18 2
31 19 6
31 20 6
31 21 3
31 22 3
31 23 2
31 24 2
31 25 4
31 26 2
31 27 4
31 28 5
31 29 3
31 30 8
32 0 3
32 1 6
32 2 8
32 3 5
32 4 6
32 5 7
32 6 2
32 7 8
32 8 2
32 9 8
32 10 3
32 11 10
32 12 5
32 13 1
32 14 2
32 15 2
32 16 7
32 17 7
32 18 7
32 19 4
32 20 3
32 21 9
32 22 6
32 23 1
32 24 6
32 25 3
32 26 5
32 27 9
32 28 3
32 29 10
32 30 9
32 31 9
33 0 4
33 1 9
33 2 1
33 3 5
33 4 10
33 5 7
33 6 6
33 7 1
33 8 8
33 9 1
33 10 2
33 11 6
33 12 1
33 13 2
33 14 7
33 15 7
33 16 8
33 17 1
33 18 1
33 19 2
33 20 4
33 21 9
33 22 3
33 23 2
33 24 10
33 25 1
33 26 10
33 27 2
33 28 4
33 29 7
33 30 10
33 31 6
33 32 9
34 0 7
34 1 1
34 2 5
34 3 1
34 4 3
34 5 9
34 6 3
34 7 1
34 8 5
34 9 5
34 10 9
34 11 1
34 12 6
34 13 5
34 14 5
34 15 2
34 16 7
34 17 3
34 18 10
34 19 6
34 20 9
34 21 7
34 22 7
34 23 2
34 24 1
34 25 5
34 26 2
34 27 8
34 28 3
34 29 4
34 30 2
34 31 5
34 32 5
34 33 5
35 0 1
35 1 8
35 2 5
35 3 9
35 4 4
35 5 7
35 6 1
35 7 4
35 8 1
35 9 7
35 10 7
35 11 4
35 12 3
35 13 7
35 14 5
35 15 8
35 16 1
35 17 5
35 18 10
35 19 7
35 20 10
35 21 7
35 22 6
35 23 10
35 24 8
35 25 7
35 26 6
35 27 7
35 28 10
35 29 10
35 30 1
35 31 2
35 32 6
35 33 6
35 34 5
36 0 7
36 1 5
36 2 7
36 3 3
36 4 9
36 5 4
36 6 8
36 7 10
36 8 7
36 9 5
36 10 9
36 11 6
36 12 9
36 13 10
36 14 10
36 15 1
36 16 9
36 17 9
36 18 9
36 19 8
36 20 2
36 21 3
36 22 7
36 23 10
36 24 1
36 25 8
36 26 4
36 27 8
36 28 3
36 29 5
36 30 1
36 31 9
36 32 9
36 33 4
36 34 8
36 35 1
37 0 7
37 1 2
37 2 8
37 3 4
37 4 1
37 5 1
37 6 1
37 7 8
37 8 8
37 9 4
37 10 4
37 11 8
37 12 6
37 13 6
37 14 4
37 15 6
37 16 5
37 17 9
37 18 3
37 19 6
37 20 8
37 21 1
37 22 3
37 23 1
37 24 1
37 25 9
37 26 8
37 27 1
37 28 9
37 29 8
37 30 5
37 31 5
37 32 4
37 33 9
37 34 3
37 35 6
37 36 8
38 0 5
38 1 3
38 2 8
38 3 6
38 4 5
38 5 1
38 6 1
38 7 4
38 8 4
38 9 9
38 10 9
38 11 3
38 12 10
38 13 7
38 14 9
38 15 2
38 16 4
38 17 8
38 18 5
38 19 8
38 20 4
38 21 10
38 22 9
38 23 10
38 24 10
38 25 3
38 26 8
38 27 2
38 28 8
38 29 4
38 30 5
38 31 1
38 32 7
38 33 3
38 34 5
38 35 1
38 36 6
38 37 7
39 0 7
39 1 3
39 2 7
39 3 1
39 4 7
39 5 7
39 6 3
39 7 3
39 8 1
39 9 6
39 10 1
39 11 3
39 12 7
39 13 4
39 14 6
39 15 3
39 16 7
39 17 10
39 18 8
39 19 10
39 20 1
39 21 4
39 22 9
39 23 1
39 24 8
39 25 7
39 26 7
39 27 9
39 28 9
39 29 6
39 30 7
39 31 7
39 32 4
39 33 6
39 34 1
39 35 2
39 36 8
39 37 7
39 38 1
40 0 10
40 1 5
40 2 3
40 3 5
40 4 1
40 5 4
40 6 10
40 7 1
40 8 6
40 9 10
40 10 9
40 11 6
40 12 2
40 13 7
40 14 4
40 15 1
40 16 8
40 17 1
40 18 3
40 19 9
40 20 8
40 21 8
40 22 9
40 23 2
40 24 10
40 25 6
40 26 9
40 27 1
40 28 7
40 29 3
40 30 7
40 31 4
40 32 1
40 33 9
40 34 1
40 35 2
40 36 10
40 37 1
40 38 1
40 39 4
41 0 6
41 1 6
41 2 7
41 3 2
41 4 9
41 5 6
41 6 2
41 7 7
41 8 8
41 9 7
41 10 4
41 11 9
41 12 7
41 13 9
41 14 4
41 15 10
41 16 7
41 17 6
41 18 8
41 19 8
41 20 1
41 21 7
41 22 9
41 23 7
41 24 1
41 25 9
41 26 9
41 27 7
41 28 4
41 29 1
41 30 2
41 31 8
41 32 5
41 33 6
41 34 9
41 35 5
41 36 3
41 37 5
41 38 5
41 39 8
41 40 3
42 0 3
42 1 8
42 2 10
42 3 7
42 4 5
42 5 7
42 6 10
42 7 2
42 8 9
42 9 8
42 10 3
42 11 2
42 12 5
42 13 4
42 14 3
42 15 3
42 16 6
42 17 9
42 18 8
42 19 9
42 20 3
42 21 10
42 22 2
42 23 3
42 24 9
42 25 1
42 26 7
42 27 2
42 28 9
42 29 10
42 30 7
42 31 1
42 32 5
42 33 6
42 34 7
42 35 9
42 36 8
42 37 7
42 38 6
42 39 3
42 40 1
42 41 6
43 0 2
43 1 5
43 2 6
43 3 5
43 4 3
43 5 5
43 6 7
43 7 9
43 8 7
43 9 8
43 10 3
43 11 7
43 12 5
43 13 8
43 14 5
43 15 2
43 16 3
43 17 2
43 18 9
43 19 6
43 20 1
43 21 2
43 22 10
43 23 2
43 24 3
43 25 4
43 26 2
43 27 2
43 28 7
43 29 4
43 30 5
43 31 4
43 32 8
43 33 5
43 34 5
43 35 7
43 36 8
43 37 1
43 38 2
43 39 2
43 40 9
43 41 3
43 42 3
44 0 10
44 1 5
44 2 5
44 3 3
44 4 7
44 5 5
44 6 1
44 7 8
44 8 7
44 9 1
44 10 8
44 11 9
44 12 1
44 13 7
44 14 3
44 15 8
44 16 6
44 17 10
44 18 5
44 19 4
44 20 4
44 21 7
44 22 5
44 23 1
44 24 7
44 25 4
44 26 5
44 27 3
44 28 3
44 29 1
44 30 10
44 31 5
44 32 7
44 33 1
44 34 10
44 35 8
44 36 6
44 37 6
44 38 8
44 39 6
44 40 10
44 41 7
44 42 8
44 43 7
45 0 8
45 1 5
45 2 5
45 3 9
45 4 6
45 5 3
45 6 9
45 7 7
45 8 2
45 9 1
45 10 5
45 11 8
45 12 3
45 13 4
45 14 5
45 15 5
45 16 10
45 17 1
45 18 1
45 19 9
45 20 8
45 21 9
45 22 9
45 23 4
45 24 2
45 25 7
45 26 10
45 27 4
45 28 7
45 29 1
45 30 5
45 31 10
45 32 7
45 33 9
45 34 6
45 35 2
45 36 2
45 37 6
45 38 10
45 39 10
45 40 10
45 41 1
45 42 1
45 43 10
45 44 1
46 0 7
46 1 1
46 2 5
46 3 4
46 4 6
46 5 2
46 6 3
46 7 4
46 8 3
46 9 7
46 10 8
46 11 1
46 12 5
46 13 2
46 14 5
46 15 9
46 16 5
46 17 7
46 18 2
46 19 10
46 20 5
46 21 1
46 22 6
46 23 9
46 24 5
46 25 8
46 26 5
46 27 5
46 28 3
46 29 1
46 30 3
46 31 7
46 32 4
46 33 3
46 34 7
46 35 1
46 36 3
46 37 5
46 38 9
46 39 4
46 40 3
46 41 2
46 42 4
46 43 7
46 44 5
46 45 6
47 0 3
47 1 1
47 2 9
47 3 1
47 4 10
47 5 9
47 6 4
47 7 6
47 8 8
47 9 2
47 10 3
47 11 1
47 12 5
47 13 8
47 14 3
47 15 3
47 16 5
47 17 5
47 18 1
47 19 10
47 20 8
47 21 4
47 22 8
47 23 2
47 24 8
47 25 10
47 26 6
47 27 6
47 28 8
47 29 1
47 30 6
47 31 10
47 32 4
47 33 2
47 34 2
47 35 10
47 36 9
47 37 8
47 38 7
47 39 5
47 40 7
47 41 9
47 42 5
47 43 9
47 44 1
47 45 1
47 46 7
48 0 2
48 1 2
48 2 4
48 3 7
48 4 1
48 5 10
48 6 9
48 7 3
48 8 7
48 9 1
48 10 6
48 11 1
48 12 9
48 13 2
48 14 7
48 15 3
48 16 8
48 17 9
48 18 6
48 19 8
48 20 4
48 21 9
48 22 3
48 23 9
48 24 5
48 25 1
48 26 3
48 27 5
48 28 9
48 29 3
48 30 9
48 31 10
48 32 9
48 33 9
48 34 1
48 35 10
48 36 1
48 37 4
48 38 2
48 39 5
48 40 5
48 41 7
48 42 7
48 43 4
48 44 9
48 45 8
48 46 1
48 47 4
49 0 6
49 1 2
49 2 2
49 3 8
49 4 5
49 5 10
49 6 8
49 7 4
49 8 5
49 9 5
49 10 1
49 11 3
49 12 8
49 13 4
49 14 6
49 15 4
49 16 5
49 17 9
49 18 8
49 19 10
49 20 3
49 21 6
49 22 4
49 23 10
49 24 2
49 25 1
49 26 3
49 27 10
49 28 8
49 29 8
49 30 7
49 31 8
49 32 6
49 33 10
49 34 5
49 35 7
49 36 1
49 37 6
49 38 5
49 39 9
49 40 7
49 41 1
49 42 5
49 43 1
49 44 9
49 45 7
49 46 8
49 47 10
49 48 2
